<number of tasks>
89

<cycle time>
83

<task times>
1 28
2 17
3 7
4 10
5 12
6 16
7 13
8 8
9 13
10 24
11 16
12 24
13 12
14 20
15 22
16 22
17 22
18 47
19 6
20 12
21 6
22 22
23 7
24 14
25 68
26 15
27 8
28 74
29 32
30 11
31 18
32 15
33 42
34 27
35 38
36 38
37 26
38 35
39 31
40 8
41 14
42 8
43 8
44 8
45 17
46 7
47 19
48 12
49 24
50 26
51 22
52 14
53 27
54 60
55 4
56 2
57 1
58 9
59 5
60 6
61 7
62 12
63 2
64 11
65 14
66 6
67 21
68 14
69 1
70 6
71 21
72 11
73 14
74 28
75 12
76 11
77 30
78 22
79 14
80 31
81 18
82 16
83 7
84 38
85 8
86 31
87 29
88 12
89 18

<precedence relations>
1,2
2,3
3,4
4,5
4,6
4,7
4,8
4,9
5,10
6,11
7,12
8,18
9,18
10,14
11,12
12,13
13,14
14,15
14,16
15,17
16,54
17,18
18,19
18,20
19,22
20,21
20,28
21,54
22,23
23,24
24,25
25,26
25,27
25,29
26,37
27,33
28,29
29,31
30,54
31,32
32,33
33,34
34,35
35,36
35,37
36,38
37,38
38,39
39,40
39,41
39,42
39,43
40,44
41,53
42,53
43,45
44,52
45,46
46,47
47,48
47,49
49,50
50,51
51,52
52,53
53,68
53,69
53,70
53,71
54,55
55,56
56,57
57,58
57,59
57,60
57,61
57,62
57,63
57,64
57,65
57,66
58,67
59,67
60,67
61,67
62,67
63,67
64,67
65,67
66,67
67,73
68,72
69,72
70,72
71,73
72,78
72,80
73,74
74,75
74,76
75,77
76,81
77,78
78,79
79,81
80,81
81,82
81,84
81,85
82,83
83,86
84,86
85,86
86,87
87,88
87,89

<setup times forward>
1,30:3
2,30:3
3,30:3
4,5:5
4,7:5
4,8:2
4,9:2
4,30:3
5,6:5
5,8:3
5,9:7
5,10:7
5,30:2
6,5:5
6,7:5
6,8:2
6,9:2
6,10:2
6,11:5
6,30:3
7,6:5
7,8:3
7,9:7
7,10:7
7,30:2
8,5:3
8,6:2
8,7:3
8,9:4
8,10:4
8,11:3
8,12:3
8,13:3
8,14:4
8,15:4
8,16:1
8,30:1
9,5:7
9,6:2
9,7:7
9,8:4
9,11:7
9,12:7
9,13:7
9,16:3
9,17:4
9,18:4
9,30:5
10,6:2
10,7:7
10,8:4
10,11:7
10,12:7
10,13:7
10,30:5
11,8:3
11,9:7
11,10:7
11,30:2
12,8:3
12,9:7
12,10:7
12,30:2
13,8:3
13,9:7
13,10:7
13,14:7
13,30:2
14,8:4
14,16:3
14,30:5
15,8:4
15,16:3
15,17:4
15,30:5
16,8:1
16,9:3
16,15:3
16,17:1
16,18:1
16,19:1
16,25:4
16,26:5
16,27:4
16,28:1
16,29:5
16,30:2
16,31:5
16,32:5
16,33:2
16,34:2
16,35:3
16,36:3
16,37:7
16,38:7
16,39:2
16,40:1
16,41:8
16,42:3
16,43:2
16,44:1
16,45:2
16,46:2
16,47:2
16,48:3
16,49:3
16,50:3
16,51:3
16,52:7
16,53:7
16,54:1
16,68:7
16,69:7
16,70:4
16,71:4
16,72:4
16,80:4
17,9:4
17,16:1
17,30:1
18,16:1
18,20:1
18,30:1
19,16:1
19,20:1
19,21:1
19,22:1
19,28:2
19,30:1
19,58:9
19,59:9
19,60:8
19,61:9
19,62:9
19,63:2
19,64:9
19,65:9
19,66:9
19,67:8
20,19:1
20,25:4
20,26:5
20,27:4
20,28:1
20,30:2
21,19:1
21,25:4
21,26:5
21,27:4
21,28:1
21,29:5
21,30:2
21,31:5
21,32:5
21,33:2
21,34:2
21,35:3
21,36:3
21,37:7
21,38:7
21,39:2
21,40:1
21,41:8
21,42:3
21,43:2
21,44:1
21,45:2
21,46:2
21,47:2
21,48:3
21,49:3
21,50:3
21,51:3
21,52:7
21,53:7
21,54:1
21,68:7
21,69:7
21,70:4
21,71:4
21,72:4
21,80:4
22,28:1
22,30:2
22,54:1
22,55:1
22,56:1
22,57:1
22,58:8
22,59:8
22,60:7
22,61:8
22,62:8
22,63:3
22,64:8
22,65:8
22,66:8
22,67:7
23,28:1
23,30:2
23,54:1
23,55:1
23,56:1
23,57:1
23,58:8
23,59:8
23,60:7
23,61:8
23,62:8
23,63:3
23,64:8
23,65:8
23,66:8
23,67:7
24,25:4
24,28:1
24,30:2
24,54:1
24,55:1
24,56:1
24,57:1
24,58:8
24,59:8
24,60:7
24,61:8
24,62:8
24,63:3
24,64:8
24,65:8
24,66:8
24,67:7
25,16:4
25,20:4
25,21:4
25,26:1
25,28:3
25,29:1
25,30:6
25,54:5
25,55:5
25,56:5
25,57:5
25,58:4
25,59:4
25,60:3
25,61:4
25,62:4
25,63:7
25,64:4
25,65:4
25,66:4
25,67:3
26,16:5
26,20:5
26,21:5
26,27:1
26,28:4
26,30:7
26,33:7
26,34:7
26,35:2
26,36:2
26,37:2
26,54:6
26,55:6
26,56:6
26,57:6
26,58:3
26,59:3
26,60:2
26,61:3
26,62:3
26,63:8
26,64:3
26,65:3
26,66:3
26,67:2
27,16:4
27,20:4
27,21:4
27,26:1
27,28:3
27,29:1
27,30:6
27,31:1
27,32:1
27,33:6
27,54:5
27,55:5
27,56:5
27,57:5
27,58:4
27,59:4
27,60:3
27,61:4
27,62:4
27,63:7
27,64:4
27,65:4
27,66:4
27,67:3
28,16:1
28,19:2
28,21:1
28,22:1
28,23:1
28,24:1
28,25:3
28,26:4
28,27:3
28,29:4
28,30:3
28,54:2
28,55:2
28,56:2
28,57:2
28,58:7
28,59:7
28,60:6
28,61:7
28,62:7
28,63:4
28,64:7
28,65:7
28,66:7
28,67:6
29,16:5
29,21:5
29,27:1
29,30:7
29,54:6
29,55:6
29,56:6
29,57:6
29,58:3
29,59:3
29,60:2
29,61:3
29,62:3
29,63:8
29,64:3
29,65:3
29,66:3
29,67:2
30,1:3
30,2:3
30,3:3
30,4:3
30,5:2
30,6:3
30,7:2
30,8:1
30,9:5
30,10:5
30,11:2
30,12:2
30,13:2
30,14:5
30,15:5
30,16:2
30,17:1
30,18:1
30,19:1
30,20:2
30,21:2
30,22:2
30,23:2
30,24:2
30,25:6
30,26:7
30,27:6
30,28:3
30,29:7
30,31:7
30,32:7
30,35:5
30,36:5
30,37:9
30,38:9
30,39:4
30,40:1
30,41:10
30,42:1
30,43:4
30,44:1
30,45:4
30,46:4
30,47:4
30,48:1
30,49:1
30,50:1
30,51:1
30,52:9
30,53:9
30,54:1
30,68:9
30,69:9
30,70:2
30,71:2
30,72:2
30,80:2
31,16:5
31,21:5
31,27:1
31,30:7
31,54:6
31,55:6
31,56:6
31,57:6
31,58:3
31,59:3
31,60:2
31,61:3
31,62:3
31,63:8
31,64:3
31,65:3
31,66:3
31,67:2
32,16:5
32,21:5
32,27:1
32,30:7
32,33:7
32,54:6
32,55:6
32,56:6
32,57:6
32,58:3
32,59:3
32,60:2
32,61:3
32,62:3
32,63:8
32,64:3
32,65:3
32,66:3
32,67:2
33,16:2
33,21:2
33,26:7
33,54:1
33,55:1
33,56:1
33,57:1
33,58:10
33,59:10
33,60:9
33,61:10
33,62:10
33,63:1
33,64:10
33,65:10
33,66:10
33,67:9
34,16:2
34,21:2
34,26:7
34,35:5
34,54:1
34,55:1
34,56:1
34,57:1
34,58:10
34,59:10
34,60:9
34,61:10
34,62:10
34,63:1
34,64:10
34,65:10
34,66:10
34,67:9
35,16:3
35,21:3
35,26:2
35,30:5
35,37:4
35,54:4
35,55:4
35,56:4
35,57:4
35,58:5
35,59:5
35,60:4
35,61:5
35,62:5
35,63:6
35,64:5
35,65:5
35,66:5
35,67:4
36,16:3
36,21:3
36,26:2
36,30:5
36,37:4
36,38:4
36,54:4
36,55:4
36,56:4
36,57:4
36,58:5
36,59:5
36,60:4
36,61:5
36,62:5
36,63:6
36,64:5
36,65:5
36,66:5
36,67:4
37,16:7
37,21:7
37,30:9
37,36:4
37,54:8
37,55:8
37,56:8
37,57:8
37,58:1
37,59:1
37,61:1
37,62:1
37,63:10
37,64:1
37,65:1
37,66:1
38,16:7
38,21:7
38,30:9
38,39:5
38,54:8
38,55:8
38,56:8
38,57:8
38,58:1
38,59:1
38,61:1
38,62:1
38,63:10
38,64:1
38,65:1
38,66:1
39,16:2
39,21:2
39,30:4
39,40:3
39,41:6
39,42:5
39,54:3
39,55:3
39,56:3
39,57:3
39,58:6
39,59:6
39,60:5
39,61:6
39,62:6
39,63:5
39,64:6
39,65:6
39,66:6
39,67:5
40,16:1
40,21:1
40,30:1
40,41:9
40,42:2
40,43:3
40,45:3
40,46:3
40,47:3
40,48:2
40,49:2
40,50:2
40,51:2
40,58:9
40,59:9
40,60:8
40,61:9
40,62:9
40,63:2
40,64:9
40,65:9
40,66:9
40,67:8
41,16:8
41,21:8
41,30:10
41,40:9
41,42:11
41,43:6
41,44:9
41,45:6
41,46:6
41,47:6
41,48:11
41,49:11
41,50:11
41,51:11
41,52:1
41,53:1
41,54:9
41,55:9
41,56:9
41,57:9
41,60:1
41,63:11
41,67:1
42,16:3
42,21:3
42,30:1
42,40:2
42,41:11
42,43:5
42,44:2
42,45:5
42,46:5
42,47:5
42,52:10
42,53:10
42,54:2
42,55:2
42,56:2
42,57:2
42,58:11
42,59:11
42,60:10
42,61:11
42,62:11
42,64:11
42,65:11
42,66:11
42,67:10
43,16:2
43,21:2
43,30:4
43,40:3
43,41:6
43,42:5
43,44:3
43,54:3
43,55:3
43,56:3
43,57:3
43,58:6
43,59:6
43,60:5
43,61:6
43,62:6
43,63:5
43,64:6
43,65:6
43,66:6
43,67:5
44,16:1
44,21:1
44,30:1
44,41:9
44,42:2
44,43:3
44,45:3
44,46:3
44,47:3
44,48:2
44,49:2
44,50:2
44,51:2
44,52:8
44,58:9
44,59:9
44,60:8
44,61:9
44,62:9
44,63:2
44,64:9
44,65:9
44,66:9
44,67:8
45,16:2
45,21:2
45,30:4
45,40:3
45,41:6
45,42:5
45,44:3
45,54:3
45,55:3
45,56:3
45,57:3
45,58:6
45,59:6
45,60:5
45,61:6
45,62:6
45,63:5
45,64:6
45,65:6
45,66:6
45,67:5
46,16:2
46,21:2
46,30:4
46,40:3
46,41:6
46,42:5
46,44:3
46,54:3
46,55:3
46,56:3
46,57:3
46,58:6
46,59:6
46,60:5
46,61:6
46,62:6
46,63:5
46,64:6
46,65:6
46,66:6
46,67:5
47,16:2
47,21:2
47,30:4
47,40:3
47,41:6
47,42:5
47,44:3
47,48:5
47,49:5
47,54:3
47,55:3
47,56:3
47,57:3
47,58:6
47,59:6
47,60:5
47,61:6
47,62:6
47,63:5
47,64:6
47,65:6
47,66:6
47,67:5
48,16:3
48,21:3
48,30:1
48,40:2
48,41:11
48,44:2
48,52:10
48,53:10
48,54:2
48,55:2
48,56:2
48,57:2
48,58:11
48,59:11
48,60:10
48,61:11
48,62:11
48,64:11
48,65:11
48,66:11
48,67:10
48,68:10
48,69:10
48,70:1
48,71:1
48,72:1
48,73:1
48,74:5
48,75:5
48,76:5
48,77:5
48,78:3
48,79:3
48,80:1
48,81:3
48,82:3
48,85:3
49,16:3
49,21:3
49,30:1
49,40:2
49,41:11
49,44:2
49,54:2
49,55:2
49,56:2
49,57:2
49,58:11
49,59:11
49,60:10
49,61:11
49,62:11
49,64:11
49,65:11
49,66:11
49,67:10
50,16:3
50,21:3
50,30:1
50,40:2
50,41:11
50,44:2
50,54:2
50,55:2
50,56:2
50,57:2
50,58:11
50,59:11
50,60:10
50,61:11
50,62:11
50,64:11
50,65:11
50,66:11
50,67:10
51,16:3
51,21:3
51,30:1
51,40:2
51,41:11
51,44:2
51,52:10
51,54:2
51,55:2
51,56:2
51,57:2
51,58:11
51,59:11
51,60:10
51,61:11
51,62:11
51,64:11
51,65:11
51,66:11
51,67:10
52,16:7
52,21:7
52,30:9
52,41:1
52,42:10
52,48:10
52,54:8
52,55:8
52,56:8
52,57:8
52,58:1
52,59:1
52,61:1
52,62:1
52,63:10
52,64:1
52,65:1
52,66:1
53,16:7
53,21:7
53,30:9
53,48:10
53,54:8
53,55:8
53,56:8
53,57:8
53,58:1
53,59:1
53,61:1
53,62:1
53,63:10
53,64:1
53,65:1
53,66:1
53,70:11
53,71:11
54,22:1
54,23:1
54,24:1
54,25:5
54,26:6
54,27:5
54,28:2
54,29:6
54,31:6
54,32:6
54,33:1
54,34:1
54,35:4
54,36:4
54,37:8
54,38:8
54,39:3
54,41:9
54,42:2
54,43:3
54,45:3
54,46:3
54,47:3
54,48:2
54,49:2
54,50:2
54,51:2
54,52:8
54,53:8
54,68:8
54,69:8
54,70:3
54,71:3
54,72:3
54,80:3
55,22:1
55,23:1
55,24:1
55,25:5
55,26:6
55,27:5
55,28:2
55,29:6
55,31:6
55,32:6
55,33:1
55,34:1
55,35:4
55,36:4
55,37:8
55,38:8
55,39:3
55,41:9
55,42:2
55,43:3
55,45:3
55,46:3
55,47:3
55,48:2
55,49:2
55,50:2
55,51:2
55,52:8
55,53:8
55,68:8
55,69:8
55,70:3
55,71:3
55,72:3
55,80:3
56,22:1
56,23:1
56,24:1
56,25:5
56,26:6
56,27:5
56,28:2
56,29:6
56,31:6
56,32:6
56,33:1
56,34:1
56,35:4
56,36:4
56,37:8
56,38:8
56,39:3
56,41:9
56,42:2
56,43:3
56,45:3
56,46:3
56,47:3
56,48:2
56,49:2
56,50:2
56,51:2
56,52:8
56,53:8
56,68:8
56,69:8
56,70:3
56,71:3
56,72:3
56,80:3
57,22:1
57,23:1
57,24:1
57,25:5
57,26:6
57,27:5
57,28:2
57,29:6
57,31:6
57,32:6
57,33:1
57,34:1
57,35:4
57,36:4
57,37:8
57,38:8
57,39:3
57,41:9
57,42:2
57,43:3
57,45:3
57,46:3
57,47:3
57,48:2
57,49:2
57,50:2
57,51:2
57,52:8
57,53:8
57,58:9
57,59:9
57,60:8
57,61:9
57,62:9
57,63:2
57,64:9
57,65:9
57,66:9
57,68:8
57,69:8
57,70:3
57,71:3
57,72:3
57,80:3
58,19:9
58,22:8
58,23:8
58,24:8
58,25:4
58,26:3
58,27:4
58,28:7
58,29:3
58,31:3
58,32:3
58,33:10
58,34:10
58,35:5
58,36:5
58,37:1
58,38:1
58,39:6
58,40:9
58,42:11
58,43:6
58,44:9
58,45:6
58,46:6
58,47:6
58,48:11
58,49:11
58,50:11
58,51:11
58,52:1
58,53:1
58,60:1
58,63:11
58,67:1
58,68:1
58,69:1
58,70:12
58,71:12
58,72:12
58,80:12
59,19:9
59,22:8
59,23:8
59,24:8
59,25:4
59,26:3
59,27:4
59,28:7
59,29:3
59,31:3
59,32:3
59,33:10
59,34:10
59,35:5
59,36:5
59,37:1
59,38:1
59,39:6
59,40:9
59,42:11
59,43:6
59,44:9
59,45:6
59,46:6
59,47:6
59,48:11
59,49:11
59,50:11
59,51:11
59,52:1
59,53:1
59,60:1
59,63:11
59,67:1
59,68:1
59,69:1
59,70:12
59,71:12
59,72:12
59,80:12
60,19:8
60,22:7
60,23:7
60,24:7
60,25:3
60,26:2
60,27:3
60,28:6
60,29:2
60,31:2
60,32:2
60,33:9
60,34:9
60,35:4
60,36:4
60,39:5
60,40:8
60,41:1
60,42:10
60,43:5
60,44:8
60,45:5
60,46:5
60,47:5
60,48:10
60,49:10
60,50:10
60,51:10
60,58:1
60,59:1
60,61:1
60,62:1
60,63:10
60,64:1
60,65:1
60,66:1
60,70:11
60,71:11
60,72:11
60,80:11
61,19:9
61,22:8
61,23:8
61,24:8
61,25:4
61,26:3
61,27:4
61,28:7
61,29:3
61,31:3
61,32:3
61,33:10
61,34:10
61,35:5
61,36:5
61,37:1
61,38:1
61,39:6
61,40:9
61,42:11
61,43:6
61,44:9
61,45:6
61,46:6
61,47:6
61,48:11
61,49:11
61,50:11
61,51:11
61,52:1
61,53:1
61,60:1
61,63:11
61,67:1
61,68:1
61,69:1
61,70:12
61,71:12
61,72:12
61,80:12
62,19:9
62,22:8
62,23:8
62,24:8
62,25:4
62,26:3
62,27:4
62,28:7
62,29:3
62,31:3
62,32:3
62,33:10
62,34:10
62,35:5
62,36:5
62,37:1
62,38:1
62,39:6
62,40:9
62,42:11
62,43:6
62,44:9
62,45:6
62,46:6
62,47:6
62,48:11
62,49:11
62,50:11
62,51:11
62,52:1
62,53:1
62,60:1
62,63:11
62,67:1
62,68:1
62,69:1
62,70:12
62,71:12
62,72:12
62,80:12
63,19:2
63,22:3
63,23:3
63,24:3
63,25:7
63,26:8
63,27:7
63,28:4
63,29:8
63,31:8
63,32:8
63,33:1
63,34:1
63,35:6
63,36:6
63,37:10
63,38:10
63,39:5
63,40:2
63,41:11
63,43:5
63,44:2
63,45:5
63,46:5
63,47:5
63,52:10
63,53:10
63,58:11
63,59:11
63,60:10
63,61:11
63,62:11
63,64:11
63,65:11
63,66:11
63,67:10
63,68:10
63,69:10
63,70:1
63,71:1
63,72:1
63,80:1
64,19:9
64,22:8
64,23:8
64,24:8
64,25:4
64,26:3
64,27:4
64,28:7
64,29:3
64,31:3
64,32:3
64,33:10
64,34:10
64,35:5
64,36:5
64,37:1
64,38:1
64,39:6
64,40:9
64,42:11
64,43:6
64,44:9
64,45:6
64,46:6
64,47:6
64,48:11
64,49:11
64,50:11
64,51:11
64,52:1
64,53:1
64,60:1
64,63:11
64,67:1
64,68:1
64,69:1
64,70:12
64,71:12
64,72:12
64,80:12
65,19:9
65,22:8
65,23:8
65,24:8
65,25:4
65,26:3
65,27:4
65,28:7
65,29:3
65,31:3
65,32:3
65,33:10
65,34:10
65,35:5
65,36:5
65,37:1
65,38:1
65,39:6
65,40:9
65,42:11
65,43:6
65,44:9
65,45:6
65,46:6
65,47:6
65,48:11
65,49:11
65,50:11
65,51:11
65,52:1
65,53:1
65,60:1
65,63:11
65,67:1
65,68:1
65,69:1
65,70:12
65,71:12
65,72:12
65,80:12
66,19:9
66,22:8
66,23:8
66,24:8
66,25:4
66,26:3
66,27:4
66,28:7
66,29:3
66,31:3
66,32:3
66,33:10
66,34:10
66,35:5
66,36:5
66,37:1
66,38:1
66,39:6
66,40:9
66,42:11
66,43:6
66,44:9
66,45:6
66,46:6
66,47:6
66,48:11
66,49:11
66,50:11
66,51:11
66,52:1
66,53:1
66,60:1
66,63:11
66,67:1
66,68:1
66,69:1
66,70:12
66,71:12
66,72:12
66,80:12
67,19:8
67,22:7
67,23:7
67,24:7
67,25:3
67,26:2
67,27:3
67,28:6
67,29:2
67,31:2
67,32:2
67,33:9
67,34:9
67,35:4
67,36:4
67,39:5
67,40:8
67,41:1
67,42:10
67,43:5
67,44:8
67,45:5
67,46:5
67,47:5
67,48:10
67,49:10
67,50:10
67,51:10
67,70:11
67,71:11
67,72:11
67,73:11
67,80:11
68,16:7
68,21:7
68,30:9
68,48:10
68,54:8
68,55:8
68,56:8
68,57:8
68,58:1
68,59:1
68,61:1
68,62:1
68,63:10
68,64:1
68,65:1
68,66:1
68,70:11
68,71:11
68,72:11
68,73:11
68,74:5
68,75:5
68,76:5
68,77:5
69,16:7
69,21:7
69,30:9
69,48:10
69,54:8
69,55:8
69,56:8
69,57:8
69,58:1
69,59:1
69,61:1
69,62:1
69,63:10
69,64:1
69,65:1
69,66:1
69,70:11
69,71:11
69,72:11
69,73:11
69,74:5
69,75:5
69,76:5
69,77:5
70,16:4
70,21:4
70,30:2
70,48:1
70,54:3
70,55:3
70,56:3
70,57:3
70,58:12
70,59:12
70,60:11
70,61:12
70,62:12
70,63:1
70,64:12
70,65:12
70,66:12
70,67:11
70,68:11
70,69:11
70,74:6
70,75:6
70,76:6
70,77:6
71,16:4
71,21:4
71,30:2
71,48:1
71,54:3
71,55:3
71,56:3
71,57:3
71,58:12
71,59:12
71,60:11
71,61:12
71,62:12
71,63:1
71,64:12
71,65:12
71,66:12
71,67:11
71,68:11
71,69:11
72,16:4
72,21:4
72,30:2
72,48:1
72,54:3
72,55:3
72,56:3
72,57:3
72,58:12
72,59:12
72,60:11
72,61:12
72,62:12
72,63:1
72,64:12
72,65:12
72,66:12
72,67:11
72,74:6
72,75:6
72,76:6
72,77:6
72,78:4
73,48:1
73,68:11
73,69:11
73,74:6
74,48:5
74,68:5
74,69:5
74,70:6
74,72:6
74,80:6
75,48:5
75,68:5
75,69:5
75,70:6
75,72:6
75,80:6
76,48:5
76,68:5
76,69:5
76,70:6
76,72:6
76,78:2
76,79:2
76,80:6
76,81:2
77,48:5
77,68:5
77,69:5
77,70:6
77,72:6
77,78:2
77,80:6
78,48:3
78,76:2
78,80:4
79,48:3
79,76:2
79,80:4
80,16:4
80,21:4
80,30:2
80,48:1
80,54:3
80,55:3
80,56:3
80,57:3
80,58:12
80,59:12
80,60:11
80,61:12
80,62:12
80,63:1
80,64:12
80,65:12
80,66:12
80,67:11
80,74:6
80,75:6
80,76:6
80,77:6
80,78:4
80,79:4
80,81:4
81,48:3
81,84:3
82,48:3
82,83:3
82,84:3
83,85:3
84,82:3
84,85:3
85,48:3
85,83:3
85,84:3
85,86:3

<setup times backward>
5,1:5
5,2:5
5,3:5
5,4:5
5,6:5
5,8:3
5,9:7
5,30:2
6,9:2
6,10:2
7,1:5
7,2:5
7,3:5
7,4:5
7,6:5
7,8:3
7,9:7
7,10:7
7,30:2
8,1:2
8,2:2
8,3:2
8,4:2
8,6:2
8,9:4
8,10:4
8,14:4
8,15:4
8,16:1
11,1:5
11,2:5
11,3:5
11,4:5
11,6:5
11,8:3
11,9:7
11,10:7
11,30:2
12,1:5
12,2:5
12,3:5
12,4:5
12,6:5
12,8:3
12,9:7
12,10:7
12,30:2
13,1:5
13,2:5
13,3:5
13,4:5
13,6:5
13,8:3
13,9:7
13,10:7
13,30:2
16,1:1
16,2:1
16,3:1
16,4:1
16,6:1
16,9:3
16,10:3
16,14:3
16,15:3
16,25:4
16,26:5
16,27:4
16,28:1
16,29:5
16,31:5
16,32:5
16,35:3
16,36:3
16,37:7
16,38:7
16,39:2
16,41:8
16,43:2
16,45:2
16,46:2
16,47:2
16,52:7
16,53:7
16,68:7
16,69:7
17,1:2
17,2:2
17,3:2
17,4:2
17,6:2
17,9:4
17,10:4
17,14:4
17,15:4
17,16:1
18,1:2
18,2:2
18,3:2
18,4:2
18,6:2
18,9:4
18,10:4
18,14:4
18,15:4
18,16:1
19,1:2
19,2:2
19,3:2
19,4:2
19,6:2
19,9:4
19,10:4
19,14:4
19,15:4
19,16:1
19,20:1
19,21:1
19,28:2
19,58:9
19,59:9
19,60:8
19,61:9
19,62:9
19,64:9
19,65:9
19,66:9
19,67:8
20,1:1
20,2:1
20,3:1
20,4:1
20,6:1
20,9:3
20,10:3
20,14:3
20,15:3
20,25:4
20,26:5
20,27:4
21,1:1
21,2:1
21,3:1
21,4:1
21,6:1
21,9:3
21,10:3
21,14:3
21,15:3
21,25:4
21,26:5
21,27:4
21,28:1
21,29:5
21,31:5
21,32:5
21,35:3
21,36:3
21,37:7
21,38:7
21,39:2
21,41:8
21,43:2
21,45:2
21,46:2
21,47:2
21,52:7
21,53:7
21,68:7
21,69:7
22,1:1
22,2:1
22,3:1
22,4:1
22,6:1
22,9:3
22,10:3
22,14:3
22,15:3
22,28:1
22,58:8
22,59:8
22,60:7
22,61:8
22,62:8
22,64:8
22,65:8
22,66:8
22,67:7
23,1:1
23,2:1
23,3:1
23,4:1
23,6:1
23,9:3
23,10:3
23,14:3
23,15:3
23,28:1
23,58:8
23,59:8
23,60:7
23,61:8
23,62:8
23,64:8
23,65:8
23,66:8
23,67:7
24,1:1
24,2:1
24,3:1
24,4:1
24,6:1
24,9:3
24,10:3
24,14:3
24,15:3
24,28:1
24,58:8
24,59:8
24,60:7
24,61:8
24,62:8
24,64:8
24,65:8
24,66:8
24,67:7
25,58:4
25,59:4
25,60:3
25,61:4
25,62:4
25,64:4
25,65:4
25,66:4
25,67:3
26,58:3
26,59:3
26,60:2
26,61:3
26,62:3
26,64:3
26,65:3
26,66:3
26,67:2
27,26:1
27,29:1
27,31:1
27,32:1
27,58:4
27,59:4
27,60:3
27,61:4
27,62:4
27,64:4
27,65:4
27,66:4
27,67:3
28,9:2
28,10:2
28,14:2
28,15:2
28,25:3
28,26:4
28,27:3
28,58:7
28,59:7
28,60:6
28,61:7
28,62:7
28,64:7
28,65:7
28,66:7
28,67:6
29,58:3
29,59:3
29,60:2
29,61:3
29,62:3
29,64:3
29,65:3
29,66:3
29,67:2
30,1:3
30,2:3
30,3:3
30,4:3
30,6:3
30,8:1
30,9:5
30,10:5
30,14:5
30,15:5
30,16:2
30,17:1
30,18:1
30,19:1
30,20:2
30,21:2
30,22:2
30,23:2
30,24:2
30,25:6
30,26:7
30,27:6
30,28:3
30,29:7
30,31:7
30,32:7
30,35:5
30,36:5
30,37:9
30,38:9
30,39:4
30,40:1
30,41:10
30,43:4
30,44:1
30,45:4
30,46:4
30,47:4
30,52:9
30,53:9
30,68:9
30,69:9
31,58:3
31,59:3
31,60:2
31,61:3
31,62:3
31,64:3
31,65:3
31,66:3
31,67:2
32,58:3
32,59:3
32,60:2
32,61:3
32,62:3
32,64:3
32,65:3
32,66:3
32,67:2
33,1:3
33,2:3
33,3:3
33,4:3
33,6:3
33,8:1
33,9:5
33,10:5
33,14:5
33,15:5
33,16:2
33,17:1
33,18:1
33,19:1
33,20:2
33,21:2
33,22:2
33,23:2
33,24:2
33,25:6
33,26:7
33,27:6
33,28:3
33,29:7
33,31:7
33,32:7
33,54:1
33,55:1
33,56:1
33,57:1
33,58:10
33,59:10
33,60:9
33,61:10
33,62:10
33,64:10
33,65:10
33,66:10
33,67:9
34,1:3
34,2:3
34,3:3
34,4:3
34,6:3
34,8:1
34,9:5
34,10:5
34,14:5
34,15:5
34,16:2
34,17:1
34,18:1
34,19:1
34,20:2
34,21:2
34,22:2
34,23:2
34,24:2
34,25:6
34,26:7
34,27:6
34,28:3
34,29:7
34,31:7
34,32:7
34,54:1
34,55:1
34,56:1
34,57:1
34,58:10
34,59:10
34,60:9
34,61:10
34,62:10
34,64:10
34,65:10
34,66:10
34,67:9
35,25:1
35,26:2
35,27:1
35,29:2
35,31:2
35,32:2
35,58:5
35,59:5
35,60:4
35,61:5
35,62:5
35,64:5
35,65:5
35,66:5
35,67:4
36,25:1
36,26:2
36,27:1
36,29:2
36,31:2
36,32:2
36,37:4
36,58:5
36,59:5
36,60:4
36,61:5
36,62:5
36,64:5
36,65:5
36,66:5
36,67:4
37,58:1
37,59:1
37,61:1
37,62:1
37,64:1
37,65:1
37,66:1
38,58:1
38,59:1
38,61:1
38,62:1
38,64:1
38,65:1
38,66:1
39,9:1
39,10:1
39,14:1
39,15:1
39,25:2
39,26:3
39,27:2
39,29:3
39,31:3
39,32:3
39,35:1
39,36:1
39,37:5
39,38:5
39,58:6
39,59:6
39,60:5
39,61:6
39,62:6
39,64:6
39,65:6
39,66:6
39,67:5
40,1:2
40,2:2
40,3:2
40,4:2
40,6:2
40,9:4
40,10:4
40,14:4
40,15:4
40,16:1
40,20:1
40,21:1
40,22:1
40,23:1
40,24:1
40,25:5
40,26:6
40,27:5
40,28:2
40,29:6
40,31:6
40,32:6
40,35:4
40,36:4
40,37:8
40,38:8
40,39:3
40,41:9
40,43:3
40,45:3
40,46:3
40,47:3
40,58:9
40,59:9
40,60:8
40,61:9
40,62:9
40,64:9
40,65:9
40,66:9
40,67:8
42,1:4
42,2:4
42,3:4
42,4:4
42,6:4
42,8:2
42,9:6
42,10:6
42,14:6
42,15:6
42,16:3
42,17:2
42,18:2
42,19:2
42,20:3
42,21:3
42,22:3
42,23:3
42,24:3
42,25:7
42,26:8
42,27:7
42,28:4
42,29:8
42,30:1
42,31:8
42,32:8
42,33:1
42,34:1
42,35:6
42,36:6
42,37:10
42,38:10
42,39:5
42,40:2
42,41:11
42,43:5
42,44:2
42,45:5
42,46:5
42,47:5
42,52:10
42,54:2
42,55:2
42,56:2
42,57:2
42,58:11
42,59:11
42,60:10
42,61:11
42,62:11
42,64:11
42,65:11
42,66:11
42,67:10
43,9:1
43,10:1
43,14:1
43,15:1
43,25:2
43,26:3
43,27:2
43,29:3
43,31:3
43,32:3
43,35:1
43,36:1
43,37:5
43,38:5
43,41:6
43,58:6
43,59:6
43,60:5
43,61:6
43,62:6
43,64:6
43,65:6
43,66:6
43,67:5
44,1:2
44,2:2
44,3:2
44,4:2
44,6:2
44,9:4
44,10:4
44,14:4
44,15:4
44,16:1
44,20:1
44,21:1
44,22:1
44,23:1
44,24:1
44,25:5
44,26:6
44,27:5
44,28:2
44,29:6
44,31:6
44,32:6
44,35:4
44,36:4
44,37:8
44,38:8
44,39:3
44,41:9
44,43:3
44,45:3
44,46:3
44,47:3
44,58:9
44,59:9
44,60:8
44,61:9
44,62:9
44,64:9
44,65:9
44,66:9
44,67:8
45,9:1
45,10:1
45,14:1
45,15:1
45,25:2
45,26:3
45,27:2
45,29:3
45,31:3
45,32:3
45,35:1
45,36:1
45,37:5
45,38:5
45,41:6
45,58:6
45,59:6
45,60:5
45,61:6
45,62:6
45,64:6
45,65:6
45,66:6
45,67:5
46,9:1
46,10:1
46,14:1
46,15:1
46,25:2
46,26:3
46,27:2
46,29:3
46,31:3
46,32:3
46,35:1
46,36:1
46,37:5
46,38:5
46,41:6
46,58:6
46,59:6
46,60:5
46,61:6
46,62:6
46,64:6
46,65:6
46,66:6
46,67:5
47,9:1
47,10:1
47,14:1
47,15:1
47,25:2
47,26:3
47,27:2
47,29:3
47,31:3
47,32:3
47,35:1
47,36:1
47,37:5
47,38:5
47,41:6
47,58:6
47,59:6
47,60:5
47,61:6
47,62:6
47,64:6
47,65:6
47,66:6
47,67:5
48,1:4
48,2:4
48,3:4
48,4:4
48,6:4
48,8:2
48,9:6
48,10:6
48,14:6
48,15:6
48,16:3
48,17:2
48,18:2
48,19:2
48,20:3
48,21:3
48,22:3
48,23:3
48,24:3
48,25:7
48,26:8
48,27:7
48,28:4
48,29:8
48,30:1
48,31:8
48,32:8
48,33:1
48,34:1
48,35:6
48,36:6
48,37:10
48,38:10
48,39:5
48,40:2
48,41:11
48,43:5
48,44:2
48,45:5
48,46:5
48,47:5
48,52:10
48,53:10
48,54:2
48,55:2
48,56:2
48,57:2
48,58:11
48,59:11
48,60:10
48,61:11
48,62:11
48,64:11
48,65:11
48,66:11
48,67:10
48,68:10
48,69:10
48,74:5
48,75:5
48,76:5
48,77:5
48,78:3
48,79:3
48,81:3
48,82:3
48,85:3
49,1:4
49,2:4
49,3:4
49,4:4
49,6:4
49,8:2
49,9:6
49,10:6
49,14:6
49,15:6
49,16:3
49,17:2
49,18:2
49,19:2
49,20:3
49,21:3
49,22:3
49,23:3
49,24:3
49,25:7
49,26:8
49,27:7
49,28:4
49,29:8
49,30:1
49,31:8
49,32:8
49,33:1
49,34:1
49,35:6
49,36:6
49,37:10
49,38:10
49,39:5
49,40:2
49,41:11
49,43:5
49,44:2
49,45:5
49,46:5
49,47:5
49,54:2
49,55:2
49,56:2
49,57:2
49,58:11
49,59:11
49,60:10
49,61:11
49,62:11
49,64:11
49,65:11
49,66:11
49,67:10
50,1:4
50,2:4
50,3:4
50,4:4
50,6:4
50,8:2
50,9:6
50,10:6
50,14:6
50,15:6
50,16:3
50,17:2
50,18:2
50,19:2
50,20:3
50,21:3
50,22:3
50,23:3
50,24:3
50,25:7
50,26:8
50,27:7
50,28:4
50,29:8
50,30:1
50,31:8
50,32:8
50,33:1
50,34:1
50,35:6
50,36:6
50,37:10
50,38:10
50,39:5
50,40:2
50,41:11
50,43:5
50,44:2
50,45:5
50,46:5
50,47:5
50,54:2
50,55:2
50,56:2
50,57:2
50,58:11
50,59:11
50,60:10
50,61:11
50,62:11
50,64:11
50,65:11
50,66:11
50,67:10
51,1:4
51,2:4
51,3:4
51,4:4
51,6:4
51,8:2
51,9:6
51,10:6
51,14:6
51,15:6
51,16:3
51,17:2
51,18:2
51,19:2
51,20:3
51,21:3
51,22:3
51,23:3
51,24:3
51,25:7
51,26:8
51,27:7
51,28:4
51,29:8
51,30:1
51,31:8
51,32:8
51,33:1
51,34:1
51,35:6
51,36:6
51,37:10
51,38:10
51,39:5
51,40:2
51,41:11
51,43:5
51,44:2
51,45:5
51,46:5
51,47:5
51,54:2
51,55:2
51,56:2
51,57:2
51,58:11
51,59:11
51,60:10
51,61:11
51,62:11
51,64:11
51,65:11
51,66:11
51,67:10
52,41:1
52,58:1
52,59:1
52,61:1
52,62:1
52,64:1
52,65:1
52,66:1
53,41:1
53,58:1
53,59:1
53,61:1
53,62:1
53,64:1
53,65:1
53,66:1
54,1:2
54,2:2
54,3:2
54,4:2
54,6:2
54,9:4
54,10:4
54,14:4
54,15:4
54,16:1
54,20:1
54,21:1
54,22:1
54,23:1
54,24:1
54,25:5
54,26:6
54,27:5
54,28:2
54,29:6
54,31:6
54,32:6
54,35:4
54,36:4
54,37:8
54,38:8
54,39:3
54,41:9
54,43:3
54,45:3
54,46:3
54,47:3
54,52:8
54,53:8
54,68:8
54,69:8
55,1:2
55,2:2
55,3:2
55,4:2
55,6:2
55,9:4
55,10:4
55,14:4
55,15:4
55,16:1
55,20:1
55,21:1
55,22:1
55,23:1
55,24:1
55,25:5
55,26:6
55,27:5
55,28:2
55,29:6
55,31:6
55,32:6
55,35:4
55,36:4
55,37:8
55,38:8
55,39:3
55,41:9
55,43:3
55,45:3
55,46:3
55,47:3
55,52:8
55,53:8
55,68:8
55,69:8
56,1:2
56,2:2
56,3:2
56,4:2
56,6:2
56,9:4
56,10:4
56,14:4
56,15:4
56,16:1
56,20:1
56,21:1
56,22:1
56,23:1
56,24:1
56,25:5
56,26:6
56,27:5
56,28:2
56,29:6
56,31:6
56,32:6
56,35:4
56,36:4
56,37:8
56,38:8
56,39:3
56,41:9
56,43:3
56,45:3
56,46:3
56,47:3
56,52:8
56,53:8
56,68:8
56,69:8
57,1:2
57,2:2
57,3:2
57,4:2
57,6:2
57,9:4
57,10:4
57,14:4
57,15:4
57,16:1
57,20:1
57,21:1
57,22:1
57,23:1
57,24:1
57,25:5
57,26:6
57,27:5
57,28:2
57,29:6
57,31:6
57,32:6
57,35:4
57,36:4
57,37:8
57,38:8
57,39:3
57,41:9
57,43:3
57,45:3
57,46:3
57,47:3
57,52:8
57,53:8
57,68:8
57,69:8
60,41:1
60,58:1
60,59:1
60,61:1
60,62:1
60,64:1
60,65:1
60,66:1
63,1:4
63,2:4
63,3:4
63,4:4
63,6:4
63,8:2
63,9:6
63,10:6
63,14:6
63,15:6
63,16:3
63,17:2
63,18:2
63,19:2
63,20:3
63,21:3
63,22:3
63,23:3
63,24:3
63,25:7
63,26:8
63,27:7
63,28:4
63,29:8
63,30:1
63,31:8
63,32:8
63,33:1
63,34:1
63,35:6
63,36:6
63,37:10
63,38:10
63,39:5
63,40:2
63,41:11
63,43:5
63,44:2
63,45:5
63,46:5
63,47:5
63,52:10
63,53:10
63,54:2
63,55:2
63,56:2
63,57:2
63,58:11
63,59:11
63,60:10
63,61:11
63,62:11
63,64:11
63,65:11
63,66:11
63,68:10
63,69:10
67,41:1
67,58:1
67,59:1
67,61:1
67,62:1
67,64:1
67,65:1
67,66:1
68,41:1
68,58:1
68,59:1
68,61:1
68,62:1
68,64:1
68,65:1
68,66:1
69,41:1
69,58:1
69,59:1
69,61:1
69,62:1
69,64:1
69,65:1
69,66:1
70,1:5
70,2:5
70,3:5
70,4:5
70,6:5
70,8:3
70,9:7
70,10:7
70,14:7
70,15:7
70,16:4
70,17:3
70,18:3
70,19:3
70,20:4
70,21:4
70,22:4
70,23:4
70,24:4
70,25:8
70,26:9
70,27:8
70,28:5
70,29:9
70,30:2
70,31:9
70,32:9
70,33:2
70,34:2
70,35:7
70,36:7
70,37:11
70,38:11
70,39:6
70,40:3
70,41:12
70,42:1
70,43:6
70,44:3
70,45:6
70,46:6
70,47:6
70,48:1
70,49:1
70,50:1
70,51:1
70,52:11
70,53:11
70,54:3
70,55:3
70,56:3
70,57:3
70,58:12
70,59:12
70,60:11
70,61:12
70,62:12
70,63:1
70,64:12
70,65:12
70,66:12
70,67:11
70,68:11
70,69:11
70,74:6
70,75:6
70,76:6
70,77:6
71,1:5
71,2:5
71,3:5
71,4:5
71,6:5
71,8:3
71,9:7
71,10:7
71,14:7
71,15:7
71,16:4
71,17:3
71,18:3
71,19:3
71,20:4
71,21:4
71,22:4
71,23:4
71,24:4
71,25:8
71,26:9
71,27:8
71,28:5
71,29:9
71,30:2
71,31:9
71,32:9
71,33:2
71,34:2
71,35:7
71,36:7
71,37:11
71,38:11
71,39:6
71,40:3
71,41:12
71,42:1
71,43:6
71,44:3
71,45:6
71,46:6
71,47:6
71,48:1
71,49:1
71,50:1
71,51:1
71,52:11
71,53:11
71,54:3
71,55:3
71,56:3
71,57:3
71,58:12
71,59:12
71,60:11
71,61:12
71,62:12
71,63:1
71,64:12
71,65:12
71,66:12
71,67:11
71,68:11
71,69:11
72,1:5
72,2:5
72,3:5
72,4:5
72,6:5
72,8:3
72,9:7
72,10:7
72,14:7
72,15:7
72,16:4
72,17:3
72,18:3
72,19:3
72,20:4
72,21:4
72,22:4
72,23:4
72,24:4
72,25:8
72,26:9
72,27:8
72,28:5
72,29:9
72,30:2
72,31:9
72,32:9
72,33:2
72,34:2
72,35:7
72,36:7
72,37:11
72,38:11
72,39:6
72,40:3
72,41:12
72,42:1
72,43:6
72,44:3
72,45:6
72,46:6
72,47:6
72,48:1
72,49:1
72,50:1
72,51:1
72,52:11
72,53:11
72,54:3
72,55:3
72,56:3
72,57:3
72,58:12
72,59:12
72,60:11
72,61:12
72,62:12
72,63:1
72,64:12
72,65:12
72,66:12
72,67:11
72,68:11
72,69:11
72,74:6
72,75:6
72,76:6
72,77:6
73,1:5
73,2:5
73,3:5
73,4:5
73,6:5
73,8:3
73,9:7
73,10:7
73,14:7
73,15:7
73,16:4
73,17:3
73,18:3
73,19:3
73,20:4
73,21:4
73,22:4
73,23:4
73,24:4
73,25:8
73,26:9
73,27:8
73,28:5
73,29:9
73,30:2
73,31:9
73,32:9
73,33:2
73,34:2
73,35:7
73,36:7
73,37:11
73,38:11
73,39:6
73,40:3
73,41:12
73,42:1
73,43:6
73,44:3
73,45:6
73,46:6
73,47:6
73,48:1
73,49:1
73,50:1
73,51:1
73,52:11
73,53:11
73,54:3
73,55:3
73,56:3
73,57:3
73,58:12
73,59:12
73,60:11
73,61:12
73,62:12
73,63:1
73,64:12
73,65:12
73,66:12
73,67:11
73,68:11
73,69:11
74,9:1
74,10:1
74,14:1
74,15:1
74,25:2
74,26:3
74,27:2
74,29:3
74,31:3
74,32:3
74,35:1
74,36:1
74,37:5
74,38:5
74,41:6
74,52:5
74,53:5
74,58:6
74,59:6
74,60:5
74,61:6
74,62:6
74,64:6
74,65:6
74,66:6
74,67:5
74,68:5
74,69:5
75,9:1
75,10:1
75,14:1
75,15:1
75,25:2
75,26:3
75,27:2
75,29:3
75,31:3
75,32:3
75,35:1
75,36:1
75,37:5
75,38:5
75,41:6
75,52:5
75,53:5
75,58:6
75,59:6
75,60:5
75,61:6
75,62:6
75,64:6
75,65:6
75,66:6
75,67:5
75,68:5
75,69:5
76,9:1
76,10:1
76,14:1
76,15:1
76,25:2
76,26:3
76,27:2
76,29:3
76,31:3
76,32:3
76,35:1
76,36:1
76,37:5
76,38:5
76,41:6
76,52:5
76,53:5
76,58:6
76,59:6
76,60:5
76,61:6
76,62:6
76,64:6
76,65:6
76,66:6
76,67:5
76,68:5
76,69:5
77,9:1
77,10:1
77,14:1
77,15:1
77,25:2
77,26:3
77,27:2
77,29:3
77,31:3
77,32:3
77,35:1
77,36:1
77,37:5
77,38:5
77,41:6
77,52:5
77,53:5
77,58:6
77,59:6
77,60:5
77,61:6
77,62:6
77,64:6
77,65:6
77,66:6
77,67:5
77,68:5
77,69:5
78,1:1
78,2:1
78,3:1
78,4:1
78,6:1
78,9:3
78,10:3
78,14:3
78,15:3
78,25:4
78,26:5
78,27:4
78,28:1
78,29:5
78,31:5
78,32:5
78,35:3
78,36:3
78,37:7
78,38:7
78,39:2
78,41:8
78,43:2
78,45:2
78,46:2
78,47:2
78,52:7
78,53:7
78,58:8
78,59:8
78,60:7
78,61:8
78,62:8
78,64:8
78,65:8
78,66:8
78,67:7
78,68:7
78,69:7
78,74:2
78,75:2
78,76:2
78,77:2
79,1:1
79,2:1
79,3:1
79,4:1
79,6:1
79,9:3
79,10:3
79,14:3
79,15:3
79,25:4
79,26:5
79,27:4
79,28:1
79,29:5
79,31:5
79,32:5
79,35:3
79,36:3
79,37:7
79,38:7
79,39:2
79,41:8
79,43:2
79,45:2
79,46:2
79,47:2
79,52:7
79,53:7
79,58:8
79,59:8
79,60:7
79,61:8
79,62:8
79,64:8
79,65:8
79,66:8
79,67:7
79,68:7
79,69:7
79,74:2
79,75:2
79,76:2
79,77:2
80,1:5
80,2:5
80,3:5
80,4:5
80,6:5
80,8:3
80,9:7
80,10:7
80,14:7
80,15:7
80,16:4
80,17:3
80,18:3
80,19:3
80,20:4
80,21:4
80,22:4
80,23:4
80,24:4
80,25:8
80,26:9
80,27:8
80,28:5
80,29:9
80,30:2
80,31:9
80,32:9
80,33:2
80,34:2
80,35:7
80,36:7
80,37:11
80,38:11
80,39:6
80,40:3
80,41:12
80,42:1
80,43:6
80,44:3
80,45:6
80,46:6
80,47:6
80,48:1
80,49:1
80,50:1
80,51:1
80,52:11
80,53:11
80,54:3
80,55:3
80,56:3
80,57:3
80,58:12
80,59:12
80,60:11
80,61:12
80,62:12
80,63:1
80,64:12
80,65:12
80,66:12
80,67:11
80,68:11
80,69:11
80,74:6
80,75:6
80,76:6
80,77:6
80,78:4
80,79:4
81,1:1
81,2:1
81,3:1
81,4:1
81,6:1
81,9:3
81,10:3
81,14:3
81,15:3
81,25:4
81,26:5
81,27:4
81,28:1
81,29:5
81,31:5
81,32:5
81,35:3
81,36:3
81,37:7
81,38:7
81,39:2
81,41:8
81,43:2
81,45:2
81,46:2
81,47:2
81,52:7
81,53:7
81,58:8
81,59:8
81,60:7
81,61:8
81,62:8
81,64:8
81,65:8
81,66:8
81,67:7
81,68:7
81,69:7
81,74:2
81,75:2
81,76:2
81,77:2
82,1:1
82,2:1
82,3:1
82,4:1
82,6:1
82,9:3
82,10:3
82,14:3
82,15:3
82,25:4
82,26:5
82,27:4
82,28:1
82,29:5
82,31:5
82,32:5
82,35:3
82,36:3
82,37:7
82,38:7
82,39:2
82,41:8
82,43:2
82,45:2
82,46:2
82,47:2
82,52:7
82,53:7
82,58:8
82,59:8
82,60:7
82,61:8
82,62:8
82,64:8
82,65:8
82,66:8
82,67:7
82,68:7
82,69:7
82,74:2
82,75:2
82,76:2
82,77:2
83,1:4
83,2:4
83,3:4
83,4:4
83,6:4
83,8:2
83,9:6
83,10:6
83,14:6
83,15:6
83,16:3
83,17:2
83,18:2
83,19:2
83,20:3
83,21:3
83,22:3
83,23:3
83,24:3
83,25:7
83,26:8
83,27:7
83,28:4
83,29:8
83,30:1
83,31:8
83,32:8
83,33:1
83,34:1
83,35:6
83,36:6
83,37:10
83,38:10
83,39:5
83,40:2
83,41:11
83,43:5
83,44:2
83,45:5
83,46:5
83,47:5
83,52:10
83,53:10
83,54:2
83,55:2
83,56:2
83,57:2
83,58:11
83,59:11
83,60:10
83,61:11
83,62:11
83,64:11
83,65:11
83,66:11
83,67:10
83,68:10
83,69:10
83,74:5
83,75:5
83,76:5
83,77:5
83,78:3
83,79:3
83,81:3
83,82:3
83,85:3
84,1:4
84,2:4
84,3:4
84,4:4
84,6:4
84,8:2
84,9:6
84,10:6
84,14:6
84,15:6
84,16:3
84,17:2
84,18:2
84,19:2
84,20:3
84,21:3
84,22:3
84,23:3
84,24:3
84,25:7
84,26:8
84,27:7
84,28:4
84,29:8
84,30:1
84,31:8
84,32:8
84,33:1
84,34:1
84,35:6
84,36:6
84,37:10
84,38:10
84,39:5
84,40:2
84,41:11
84,43:5
84,44:2
84,45:5
84,46:5
84,47:5
84,52:10
84,53:10
84,54:2
84,55:2
84,56:2
84,57:2
84,58:11
84,59:11
84,60:10
84,61:11
84,62:11
84,64:11
84,65:11
84,66:11
84,67:10
84,68:10
84,69:10
84,74:5
84,75:5
84,76:5
84,77:5
84,78:3
84,79:3
84,81:3
84,82:3
84,85:3
85,1:1
85,2:1
85,3:1
85,4:1
85,6:1
85,9:3
85,10:3
85,14:3
85,15:3
85,25:4
85,26:5
85,27:4
85,28:1
85,29:5
85,31:5
85,32:5
85,35:3
85,36:3
85,37:7
85,38:7
85,39:2
85,41:8
85,43:2
85,45:2
85,46:2
85,47:2
85,52:7
85,53:7
85,58:8
85,59:8
85,60:7
85,61:8
85,62:8
85,64:8
85,65:8
85,66:8
85,67:7
85,68:7
85,69:7
85,74:2
85,75:2
85,76:2
85,77:2
86,1:4
86,2:4
86,3:4
86,4:4
86,6:4
86,8:2
86,9:6
86,10:6
86,14:6
86,15:6
86,16:3
86,17:2
86,18:2
86,19:2
86,20:3
86,21:3
86,22:3
86,23:3
86,24:3
86,25:7
86,26:8
86,27:7
86,28:4
86,29:8
86,30:1
86,31:8
86,32:8
86,33:1
86,34:1
86,35:6
86,36:6
86,37:10
86,38:10
86,39:5
86,40:2
86,41:11
86,43:5
86,44:2
86,45:5
86,46:5
86,47:5
86,52:10
86,53:10
86,54:2
86,55:2
86,56:2
86,57:2
86,58:11
86,59:11
86,60:10
86,61:11
86,62:11
86,64:11
86,65:11
86,66:11
86,67:10
86,68:10
86,69:10
86,74:5
86,75:5
86,76:5
86,77:5
86,78:3
86,79:3
86,81:3
86,82:3
86,85:3
87,1:4
87,2:4
87,3:4
87,4:4
87,6:4
87,8:2
87,9:6
87,10:6
87,14:6
87,15:6
87,16:3
87,17:2
87,18:2
87,19:2
87,20:3
87,21:3
87,22:3
87,23:3
87,24:3
87,25:7
87,26:8
87,27:7
87,28:4
87,29:8
87,30:1
87,31:8
87,32:8
87,33:1
87,34:1
87,35:6
87,36:6
87,37:10
87,38:10
87,39:5
87,40:2
87,41:11
87,43:5
87,44:2
87,45:5
87,46:5
87,47:5
87,52:10
87,53:10
87,54:2
87,55:2
87,56:2
87,57:2
87,58:11
87,59:11
87,60:10
87,61:11
87,62:11
87,64:11
87,65:11
87,66:11
87,67:10
87,68:10
87,69:10
87,74:5
87,75:5
87,76:5
87,77:5
87,78:3
87,79:3
87,81:3
87,82:3
87,85:3
88,1:4
88,2:4
88,3:4
88,4:4
88,6:4
88,8:2
88,9:6
88,10:6
88,14:6
88,15:6
88,16:3
88,17:2
88,18:2
88,19:2
88,20:3
88,21:3
88,22:3
88,23:3
88,24:3
88,25:7
88,26:8
88,27:7
88,28:4
88,29:8
88,30:1
88,31:8
88,32:8
88,33:1
88,34:1
88,35:6
88,36:6
88,37:10
88,38:10
88,39:5
88,40:2
88,41:11
88,43:5
88,44:2
88,45:5
88,46:5
88,47:5
88,52:10
88,53:10
88,54:2
88,55:2
88,56:2
88,57:2
88,58:11
88,59:11
88,60:10
88,61:11
88,62:11
88,64:11
88,65:11
88,66:11
88,67:10
88,68:10
88,69:10
88,74:5
88,75:5
88,76:5
88,77:5
88,78:3
88,79:3
88,81:3
88,82:3
88,85:3
89,1:4
89,2:4
89,3:4
89,4:4
89,6:4
89,8:2
89,9:6
89,10:6
89,14:6
89,15:6
89,16:3
89,17:2
89,18:2
89,19:2
89,20:3
89,21:3
89,22:3
89,23:3
89,24:3
89,25:7
89,26:8
89,27:7
89,28:4
89,29:8
89,30:1
89,31:8
89,32:8
89,33:1
89,34:1
89,35:6
89,36:6
89,37:10
89,38:10
89,39:5
89,40:2
89,41:11
89,43:5
89,44:2
89,45:5
89,46:5
89,47:5
89,52:10
89,53:10
89,54:2
89,55:2
89,56:2
89,57:2
89,58:11
89,59:11
89,60:10
89,61:11
89,62:11
89,64:11
89,65:11
89,66:11
89,67:10
89,68:10
89,69:10
89,74:5
89,75:5
89,76:5
89,77:5
89,78:3
89,79:3
89,81:3
89,82:3
89,85:3

<end>

<optimal SALBP-1 value>
21


<rand seed>
467321153

